words_hard_train/7791.qaiger
aag 56 14 0 1 42
2
4
8
10
14
18
22
30
36
46
52
56
80
88
113
6 2 5
12 9 11
16 12 15
20 16 19
24 21 22
26 20 23
28 25 27
32 29 31
34 17 18
38 35 36
40 38 21
42 37 18
44 43 17
48 47 10
50 44 49
54 52 15
58 57 8
60 55 58
62 53 14
64 61 63
66 46 11
68 65 67
70 50 69
72 41 71
74 33 73
76 28 30
78 75 77
82 27 80
84 26 81
86 83 85
90 87 89
92 79 91
94 92 84
96 6 95
98 3 4
100 85 99
102 101 95
104 86 88
106 93 105
108 107 99
110 103 109
112 97 111
i0 2 y2[7]
i1 1 x1[6]
i2 1 x1[0]
i3 1 x1[2]
i4 1 x1[1]
i5 1 x1[3]
i6 1 x1[4]
i7 2 y2[5]
i8 2 y2[4]
i9 2 y2[3]
i10 2 y2[2]
i11 2 y2[1]
i12 1 x1[5]
i13 2 y2[6]
o0 bv[0]
c
simplified
  <
    subtract
      1
      subtract
        1
        2 y2
    << 1
      1 x1
