words_hard_train/7791.qaiger.qdimacs
p cnf 56 127
a 2 4 5 7 40 9 11 0
e 1 3 6 8 10 12 13 14 15 16 17 18 19 20 21 22 23 24 25 26 27 28 29 30 31 32 33 34 35 36 37 38 39 41 42 43 44 45 46 47 48 49 50 51 52 53 54 55 56 0
-1 2 3 0
1 -3 0
-2 -3 0
4 5 6 0
-4 -6 0
-5 -6 0
-6 7 8 0
6 -8 0
-7 -8 0
-8 9 10 0
8 -10 0
-9 -10 0
10 -11 12 0
-10 -12 0
11 -12 0
-10 11 13 0
10 -13 0
-11 -13 0
12 13 14 0
-12 -14 0
-13 -14 0
14 15 16 0
-14 -16 0
-15 -16 0
8 -9 17 0
-8 -17 0
9 -17 0
17 -18 19 0
-17 -19 0
18 -19 0
-19 10 20 0
19 -20 0
-10 -20 0
18 -9 21 0
-18 -21 0
9 -21 0
21 8 22 0
-21 -22 0
-8 -22 0
23 -5 24 0
-23 -24 0
5 -24 0
-22 24 25 0
22 -25 0
-24 -25 0
-26 7 27 0
26 -27 0
-7 -27 0
28 -4 29 0
-28 -29 0
4 -29 0
27 -29 30 0
-27 -30 0
29 -30 0
26 -7 31 0
-26 -31 0
7 -31 0
30 31 32 0
-30 -32 0
-31 -32 0
-23 5 33 0
23 -33 0
-5 -33 0
32 33 34 0
-32 -34 0
-33 -34 0
-25 34 35 0
25 -35 0
-34 -35 0
20 35 36 0
-20 -36 0
-35 -36 0
16 36 37 0
-16 -37 0
-36 -37 0
-14 -15 38 0
14 -38 0
15 -38 0
37 38 39 0
-37 -39 0
-38 -39 0
13 -40 41 0
-13 -41 0
40 -41 0
-13 40 42 0
13 -42 0
-40 -42 0
41 42 43 0
-41 -43 0
-42 -43 0
43 44 45 0
-43 -45 0
-44 -45 0
39 45 46 0
-39 -46 0
-45 -46 0
-46 -42 47 0
46 -47 0
42 -47 0
-3 47 48 0
3 -48 0
-47 -48 0
1 -2 49 0
-1 -49 0
2 -49 0
42 49 50 0
-42 -50 0
-49 -50 0
50 47 51 0
-50 -51 0
-47 -51 0
-43 -44 52 0
43 -52 0
44 -52 0
46 52 53 0
-46 -53 0
-52 -53 0
53 49 54 0
-53 -54 0
-49 -54 0
51 54 55 0
-51 -55 0
-54 -55 0
48 55 56 0
-48 -56 0
-55 -56 0
-56 0
